p cnf 496 2971
1 2 0
3 4 0
5 6 0
7 8 0
10 11 0
12 13 0
14 15 0
16 17 0
18 19 0
20 21 0
22 23 0
24 25 0
26 27 0
28 29 0
30 31 0
32 33 0
34 35 0
36 37 0
38 39 0
40 41 0
42 43 0
44 45 0
46 47 0
48 49 0
50 51 0
52 53 0
54 55 0
56 57 0
58 59 0
60 61 0
62 63 0
64 65 0
66 67 0
68 69 0
70 71 0
72 73 0
74 75 0
76 77 0
79 80 0
81 82 0
83 0
84 85 0
86 87 0
88 89 0
90 91 0
92 93 0
94 95 0
96 97 0
98 99 0
100 101 0
102 103 0
104 105 0
106 107 0
108 109 0
110 111 0
112 113 0
114 115 0
116 117 0
118 119 0
120 121 0
122 123 0
124 125 0
126 127 0
128 129 0
130 131 0
132 133 0
134 135 0
136 137 0
139 140 0
141 142 0
143 144 0
145 146 0
147 148 0
149 150 0
151 152 0
153 0
154 155 0
-1 -4 -5 -8 -11 -12 -15 0
-16 -19 -20 -23 -24 -27 -28 -31 0
-32 -35 -36 -39 -40 -43 -44 -47 0
-48 -51 -52 -55 -56 -59 -60 -63 0
-64 -67 -68 -71 -72 -75 -76 -78 0
-94 -97 -98 -101 -102 -105 -106 -109 0
-110 -113 -114 -117 -118 -121 -122 -125 0
-126 -129 -130 -133 -134 -137 -140 0
-2 -3 -6 -7 -11 -12 -15 0
-17 -18 -21 -22 -24 -27 -28 -31 0
-33 -34 -37 -38 -40 -43 -44 -47 0
-49 -50 -53 -54 -56 -59 -60 -63 0
-65 -66 -69 -70 -72 -75 -76 -78 0
-80 -81 -83 -84 -86 -89 -90 -93 0
-95 -96 -99 -100 -102 -105 -106 -109 0
-111 -112 -115 -116 -118 -121 -122 -125 0
-127 -128 -131 -132 -134 -137 -140 0
-1 -4 -5 -7 -10 -12 -15 0
-16 -19 -20 -22 -24 -26 -28 -31 0
-32 -35 -36 -38 -40 -42 -44 -47 0
-48 -51 -52 -54 -56 -58 -60 -63 0
-64 -67 -68 -70 -72 -74 -76 -78 0
-94 -97 -98 -100 -102 -104 -106 -109 0
-110 -113 -114 -116 -118 -120 -122 -125 0
-126 -129 -130 -132 -134 -136 -140 0
-1 -4 -6 -8 -11 -12 -15 0
-16 -19 -21 -23 -24 -27 -28 -31 0
-32 -35 -37 -39 -40 -43 -44 -47 0
-48 -51 -53 -55 -56 -59 -60 -63 0
-64 -67 -69 -71 -72 -75 -76 -78 0
-79 -82 -83 -85 -86 -89 -90 -93 0
-94 -97 -99 -101 -102 -105 -106 -109 0
-110 -113 -115 -117 -118 -121 -122 -125 0
-126 -129 -131 -133 -134 -137 -140 0
-1 -3 -6 -7 -10 -12 -15 0
-16 -18 -21 -22 -24 -26 -28 -31 0
-32 -34 -37 -38 -40 -42 -44 -47 0
-48 -50 -53 -54 -56 -58 -60 -63 0
-64 -66 -69 -70 -72 -74 -76 -78 0
-79 -81 -83 -84 -86 -88 -90 -93 0
-94 -96 -99 -100 -102 -104 -106 -109 0
-110 -112 -115 -116 -118 -120 -122 -125 0
-126 -128 -131 -132 -134 -136 -140 0
-2 -3 -5 -8 -11 -12 -15 0
-17 -18 -20 -23 -24 -27 -28 -31 0
-33 -34 -36 -39 -40 -43 -44 -47 0
-49 -50 -52 -55 -56 -59 -60 -63 0
-65 -66 -68 -71 -72 -75 -76 -78 0
-95 -96 -98 -101 -102 -105 -106 -109 0
-111 -112 -114 -117 -118 -121 -122 -125 0
-127 -128 -130 -133 -134 -137 -140 0
-2 -3 -5 -8 -10 -12 -15 0
-17 -18 -20 -23 -24 -26 -28 -31 0
-33 -34 -36 -39 -40 -42 -44 -47 0
-49 -50 -52 -55 -56 -58 -60 -63 0
-65 -66 -68 -71 -72 -74 -76 -78 0
-95 -96 -98 -101 -102 -104 -106 -109 0
-111 -112 -114 -117 -118 -120 -122 -125 0
-127 -128 -130 -133 -134 -136 -140 0
-2 -4 -6 -8 -10 -12 -14 0
-17 -19 -21 -23 -24 -26 -28 -30 0
-33 -35 -37 -39 -40 -42 -44 -46 0
-49 -51 -53 -55 -56 -58 -60 -62 0
-65 -67 -69 -71 -72 -74 -76 0
-80 -82 -83 -85 -86 -88 -90 -92 0
-95 -97 -99 -101 -102 -104 -106 -108 0
-111 -113 -115 -117 -118 -120 -122 -124 0
-127 -129 -131 -133 -134 -136 -139 0
-2 -3 -5 -8 -10 -12 -14 0
-17 -18 -20 -23 -24 -26 -28 -30 0
-33 -34 -36 -39 -40 -42 -44 -46 0
-49 -50 -52 -55 -56 -58 -60 -62 0
-65 -66 -68 -71 -72 -74 -76 0
-95 -96 -98 -101 -102 -104 -106 -108 0
-111 -112 -114 -117 -118 -120 -122 -124 0
-127 -128 -130 -133 -134 -136 -139 0
-1 -4 -5 -8 -10 -12 -15 0
-16 -19 -20 -23 -24 -26 -28 -31 0
-32 -35 -36 -39 -40 -42 -44 -47 0
-48 -51 -52 -55 -56 -58 -60 -63 0
-64 -67 -68 -71 -72 -74 -76 -78 0
-94 -97 -98 -101 -102 -104 -106 -109 0
-110 -113 -114 -117 -118 -120 -122 -125 0
-126 -129 -130 -133 -134 -136 -140 0
-2 -4 -6 -7 -11 -12 -15 0
-17 -19 -21 -22 -24 -27 -28 -31 0
-33 -35 -37 -38 -40 -43 -44 -47 0
-49 -51 -53 -54 -56 -59 -60 -63 0
-65 -67 -69 -70 -72 -75 -76 -78 0
-80 -82 -83 -84 -86 -89 -90 -93 0
-95 -97 -99 -100 -102 -105 -106 -109 0
-111 -113 -115 -116 -118 -121 -122 -125 0
-127 -129 -131 -132 -134 -137 -140 0
-2 -3 -5 -8 -11 -12 -15 0
-17 -18 -20 -23 -24 -27 -28 -31 0
-33 -34 -36 -39 -40 -43 -44 -47 0
-49 -50 -52 -55 -56 -59 -60 -63 0
-65 -66 -68 -71 -72 -75 -76 -78 0
-95 -96 -98 -101 -102 -105 -106 -109 0
-111 -112 -114 -117 -118 -121 -122 -125 0
-127 -128 -130 -133 -134 -137 -140 0
-1 -3 -6 -8 -10 -12 -15 0
-16 -18 -21 -23 -24 -26 -28 -31 0
-32 -34 -37 -39 -40 -42 -44 -47 0
-48 -50 -53 -55 -56 -58 -60 -63 0
-64 -66 -69 -71 -72 -74 -76 -78 0
-79 -81 -83 -85 -86 -88 -90 -93 0
-94 -96 -99 -101 -102 -104 -106 -109 0
-110 -112 -115 -117 -118 -120 -122 -125 0
-126 -128 -131 -133 -134 -136 -140 0
-1 -3 -5 -8 -11 -12 -15 0
-16 -18 -20 -23 -24 -27 -28 -31 0
-32 -34 -36 -39 -40 -43 -44 -47 0
-48 -50 -52 -55 -56 -59 -60 -63 0
-64 -66 -68 -71 -72 -75 -76 -78 0
-94 -96 -98 -101 -102 -105 -106 -109 0
-110 -112 -114 -117 -118 -121 -122 -125 0
-126 -128 -130 -133 -134 -137 -140 0
-2 -4 -5 -8 -10 -12 -15 0
-17 -19 -20 -23 -24 -26 -28 -31 0
-33 -35 -36 -39 -40 -42 -44 -47 0
-49 -51 -52 -55 -56 -58 -60 -63 0
-65 -67 -68 -71 -72 -74 -76 -78 0
-95 -97 -98 -101 -102 -104 -106 -109 0
-111 -113 -114 -117 -118 -120 -122 -125 0
-127 -129 -130 -133 -134 -136 -140 0
1 -156 0
4 -156 0
6 -156 0
8 -156 0
9 -156 0
11 -156 0
12 -156 0
15 -156 0
16 -157 0
19 -157 0
21 -157 0
23 -157 0
25 -157 0
27 -157 0
28 -157 0
31 -157 0
32 -158 0
35 -158 0
37 -158 0
39 -158 0
41 -158 0
43 -158 0
44 -158 0
47 -158 0
48 -159 0
51 -159 0
53 -159 0
55 -159 0
57 -159 0
59 -159 0
60 -159 0
63 -159 0
64 -160 0
67 -160 0
69 -160 0
71 -160 0
73 -160 0
75 -160 0
76 -160 0
78 -160 0
79 -161 0
82 -161 0
83 -161 0
85 -161 0
87 -161 0
89 -161 0
90 -161 0
93 -161 0
94 -162 0
97 -162 0
99 -162 0
101 -162 0
103 -162 0
105 -162 0
106 -162 0
109 -162 0
110 -163 0
113 -163 0
115 -163 0
117 -163 0
119 -163 0
121 -163 0
122 -163 0
125 -163 0
126 -164 0
129 -164 0
131 -164 0
133 -164 0
135 -164 0
137 -164 0
140 -164 0
141 -165 0
144 -165 0
146 -165 0
148 -165 0
150 -165 0
152 -165 0
-165 0
155 -165 0
1 -166 0
4 -166 0
6 -166 0
8 -166 0
11 -166 0
13 -166 0
15 -166 0
16 -167 0
19 -167 0
21 -167 0
23 -167 0
24 -167 0
27 -167 0
29 -167 0
31 -167 0
32 -168 0
35 -168 0
37 -168 0
39 -168 0
40 -168 0
43 -168 0
45 -168 0
47 -168 0
48 -169 0
51 -169 0
53 -169 0
55 -169 0
56 -169 0
59 -169 0
61 -169 0
63 -169 0
64 -170 0
67 -170 0
69 -170 0
71 -170 0
72 -170 0
75 -170 0
77 -170 0
78 -170 0
79 -171 0
82 -171 0
83 -171 0
85 -171 0
86 -171 0
89 -171 0
91 -171 0
93 -171 0
94 -172 0
97 -172 0
99 -172 0
101 -172 0
102 -172 0
105 -172 0
107 -172 0
109 -172 0
110 -173 0
113 -173 0
115 -173 0
117 -173 0
118 -173 0
121 -173 0
123 -173 0
125 -173 0
126 -174 0
129 -174 0
131 -174 0
133 -174 0
134 -174 0
137 -174 0
138 -174 0
140 -174 0
141 -175 0
144 -175 0
146 -175 0
148 -175 0
149 -175 0
152 -175 0
153 -175 0
155 -175 0
1 -176 0
4 -176 0
5 -176 0
7 -176 0
9 -176 0
10 -176 0
12 -176 0
15 -176 0
16 -177 0
19 -177 0
20 -177 0
22 -177 0
25 -177 0
26 -177 0
28 -177 0
31 -177 0
32 -178 0
35 -178 0
36 -178 0
38 -178 0
41 -178 0
42 -178 0
44 -178 0
47 -178 0
48 -179 0
51 -179 0
52 -179 0
54 -179 0
57 -179 0
58 -179 0
60 -179 0
63 -179 0
64 -180 0
67 -180 0
68 -180 0
70 -180 0
73 -180 0
74 -180 0
76 -180 0
78 -180 0
79 -181 0
82 -181 0
-181 0
84 -181 0
87 -181 0
88 -181 0
90 -181 0
93 -181 0
94 -182 0
97 -182 0
98 -182 0
100 -182 0
103 -182 0
104 -182 0
106 -182 0
109 -182 0
110 -183 0
113 -183 0
114 -183 0
116 -183 0
119 -183 0
120 -183 0
122 -183 0
125 -183 0
126 -184 0
129 -184 0
130 -184 0
132 -184 0
135 -184 0
136 -184 0
140 -184 0
141 -185 0
144 -185 0
145 -185 0
147 -185 0
150 -185 0
151 -185 0
-185 0
155 -185 0
2 -186 0
3 -186 0
6 -186 0
7 -186 0
9 -186 0
11 -186 0
13 -186 0
14 -186 0
17 -187 0
18 -187 0
21 -187 0
22 -187 0
25 -187 0
27 -187 0
29 -187 0
30 -187 0
33 -188 0
34 -188 0
37 -188 0
38 -188 0
41 -188 0
43 -188 0
45 -188 0
46 -188 0
49 -189 0
50 -189 0
53 -189 0
54 -189 0
57 -189 0
59 -189 0
61 -189 0
62 -189 0
65 -190 0
66 -190 0
69 -190 0
70 -190 0
73 -190 0
75 -190 0
77 -190 0
80 -191 0
81 -191 0
83 -191 0
84 -191 0
87 -191 0
89 -191 0
91 -191 0
92 -191 0
95 -192 0
96 -192 0
99 -192 0
100 -192 0
103 -192 0
105 -192 0
107 -192 0
108 -192 0
111 -193 0
112 -193 0
115 -193 0
116 -193 0
119 -193 0
121 -193 0
123 -193 0
124 -193 0
127 -194 0
128 -194 0
131 -194 0
132 -194 0
135 -194 0
137 -194 0
138 -194 0
139 -194 0
142 -195 0
143 -195 0
146 -195 0
147 -195 0
150 -195 0
152 -195 0
153 -195 0
154 -195 0
1 -196 0
3 -196 0
5 -196 0
8 -196 0
11 -196 0
13 -196 0
14 -196 0
16 -197 0
18 -197 0
20 -197 0
23 -197 0
24 -197 0
27 -197 0
29 -197 0
30 -197 0
32 -198 0
34 -198 0
36 -198 0
39 -198 0
40 -198 0
43 -198 0
45 -198 0
46 -198 0
48 -199 0
50 -199 0
52 -199 0
55 -199 0
56 -199 0
59 -199 0
61 -199 0
62 -199 0
64 -200 0
66 -200 0
68 -200 0
71 -200 0
72 -200 0
75 -200 0
77 -200 0
79 -201 0
81 -201 0
-201 0
85 -201 0
86 -201 0
89 -201 0
91 -201 0
92 -201 0
94 -202 0
96 -202 0
98 -202 0
101 -202 0
102 -202 0
105 -202 0
107 -202 0
108 -202 0
110 -203 0
112 -203 0
114 -203 0
117 -203 0
118 -203 0
121 -203 0
123 -203 0
124 -203 0
126 -204 0
128 -204 0
130 -204 0
133 -204 0
134 -204 0
137 -204 0
138 -204 0
139 -204 0
141 -205 0
143 -205 0
145 -205 0
148 -205 0
149 -205 0
152 -205 0
153 -205 0
154 -205 0
1 -206 0
3 -206 0
5 -206 0
8 -206 0
9 -206 0
10 -206 0
12 -206 0
14 -206 0
16 -207 0
18 -207 0
20 -207 0
23 -207 0
25 -207 0
26 -207 0
28 -207 0
30 -207 0
32 -208 0
34 -208 0
36 -208 0
39 -208 0
41 -208 0
42 -208 0
44 -208 0
46 -208 0
48 -209 0
50 -209 0
52 -209 0
55 -209 0
57 -209 0
58 -209 0
60 -209 0
62 -209 0
64 -210 0
66 -210 0
68 -210 0
71 -210 0
73 -210 0
74 -210 0
76 -210 0
79 -211 0
81 -211 0
-211 0
85 -211 0
87 -211 0
88 -211 0
90 -211 0
92 -211 0
94 -212 0
96 -212 0
98 -212 0
101 -212 0
103 -212 0
104 -212 0
106 -212 0
108 -212 0
110 -213 0
112 -213 0
114 -213 0
117 -213 0
119 -213 0
120 -213 0
122 -213 0
124 -213 0
126 -214 0
128 -214 0
130 -214 0
133 -214 0
135 -214 0
136 -214 0
139 -214 0
141 -215 0
143 -215 0
145 -215 0
148 -215 0
150 -215 0
151 -215 0
-215 0
154 -215 0
1 -216 0
4 -216 0
5 -216 0
7 -216 0
9 -216 0
11 -216 0
13 -216 0
15 -216 0
16 -217 0
19 -217 0
20 -217 0
22 -217 0
25 -217 0
27 -217 0
29 -217 0
31 -217 0
32 -218 0
35 -218 0
36 -218 0
38 -218 0
41 -218 0
43 -218 0
45 -218 0
47 -218 0
48 -219 0
51 -219 0
52 -219 0
54 -219 0
57 -219 0
59 -219 0
61 -219 0
63 -219 0
64 -220 0
67 -220 0
68 -220 0
70 -220 0
73 -220 0
75 -220 0
77 -220 0
78 -220 0
79 -221 0
82 -221 0
-221 0
84 -221 0
87 -221 0
89 -221 0
91 -221 0
93 -221 0
94 -222 0
97 -222 0
98 -222 0
100 -222 0
103 -222 0
105 -222 0
107 -222 0
109 -222 0
110 -223 0
113 -223 0
114 -223 0
116 -223 0
119 -223 0
121 -223 0
123 -223 0
125 -223 0
126 -224 0
129 -224 0
130 -224 0
132 -224 0
135 -224 0
137 -224 0
138 -224 0
140 -224 0
141 -225 0
144 -225 0
145 -225 0
147 -225 0
150 -225 0
152 -225 0
153 -225 0
155 -225 0
2 -226 0
4 -226 0
6 -226 0
7 -226 0
9 -226 0
10 -226 0
12 -226 0
15 -226 0
17 -227 0
19 -227 0
21 -227 0
22 -227 0
25 -227 0
26 -227 0
28 -227 0
31 -227 0
33 -228 0
35 -228 0
37 -228 0
38 -228 0
41 -228 0
42 -228 0
44 -228 0
47 -228 0
49 -229 0
51 -229 0
53 -229 0
54 -229 0
57 -229 0
58 -229 0
60 -229 0
63 -229 0
65 -230 0
67 -230 0
69 -230 0
70 -230 0
73 -230 0
74 -230 0
76 -230 0
78 -230 0
80 -231 0
82 -231 0
83 -231 0
84 -231 0
87 -231 0
88 -231 0
90 -231 0
93 -231 0
95 -232 0
97 -232 0
99 -232 0
100 -232 0
103 -232 0
104 -232 0
106 -232 0
109 -232 0
111 -233 0
113 -233 0
115 -233 0
116 -233 0
119 -233 0
120 -233 0
122 -233 0
125 -233 0
127 -234 0
129 -234 0
131 -234 0
132 -234 0
135 -234 0
136 -234 0
140 -234 0
142 -235 0
144 -235 0
146 -235 0
147 -235 0
150 -235 0
151 -235 0
-235 0
155 -235 0
1 -236 0
4 -236 0
5 -236 0
8 -236 0
9 -236 0
11 -236 0
12 -236 0
14 -236 0
16 -237 0
19 -237 0
20 -237 0
23 -237 0
25 -237 0
27 -237 0
28 -237 0
30 -237 0
32 -238 0
35 -238 0
36 -238 0
39 -238 0
41 -238 0
43 -238 0
44 -238 0
46 -238 0
48 -239 0
51 -239 0
52 -239 0
55 -239 0
57 -239 0
59 -239 0
60 -239 0
62 -239 0
64 -240 0
67 -240 0
68 -240 0
71 -240 0
73 -240 0
75 -240 0
76 -240 0
79 -241 0
82 -241 0
-241 0
85 -241 0
87 -241 0
89 -241 0
90 -241 0
92 -241 0
94 -242 0
97 -242 0
98 -242 0
101 -242 0
103 -242 0
105 -242 0
106 -242 0
108 -242 0
110 -243 0
113 -243 0
114 -243 0
117 -243 0
119 -243 0
121 -243 0
122 -243 0
124 -243 0
141 -244 0
144 -244 0
145 -244 0
148 -244 0
150 -244 0
152 -244 0
-244 0
154 -244 0
1 -245 0
3 -245 0
6 -245 0
7 -245 0
9 -245 0
10 -245 0
13 -245 0
15 -245 0
16 -246 0
18 -246 0
21 -246 0
22 -246 0
25 -246 0
26 -246 0
29 -246 0
31 -246 0
32 -247 0
34 -247 0
37 -247 0
38 -247 0
41 -247 0
42 -247 0
45 -247 0
47 -247 0
48 -248 0
50 -248 0
53 -248 0
54 -248 0
57 -248 0
58 -248 0
61 -248 0
63 -248 0
64 -249 0
66 -249 0
69 -249 0
70 -249 0
73 -249 0
74 -249 0
77 -249 0
78 -249 0
79 -250 0
81 -250 0
83 -250 0
84 -250 0
87 -250 0
88 -250 0
91 -250 0
93 -250 0
94 -251 0
96 -251 0
99 -251 0
100 -251 0
103 -251 0
104 -251 0
107 -251 0
109 -251 0
110 -252 0
112 -252 0
115 -252 0
116 -252 0
119 -252 0
120 -252 0
123 -252 0
125 -252 0
126 -253 0
128 -253 0
131 -253 0
132 -253 0
135 -253 0
136 -253 0
138 -253 0
140 -253 0
141 -254 0
143 -254 0
146 -254 0
147 -254 0
150 -254 0
151 -254 0
153 -254 0
155 -254 0
2 -255 0
3 -255 0
5 -255 0
8 -255 0
9 -255 0
10 -255 0
12 -255 0
14 -255 0
17 -256 0
18 -256 0
20 -256 0
23 -256 0
25 -256 0
26 -256 0
28 -256 0
30 -256 0
33 -257 0
34 -257 0
36 -257 0
39 -257 0
41 -257 0
42 -257 0
44 -257 0
46 -257 0
49 -258 0
50 -258 0
52 -258 0
55 -258 0
57 -258 0
58 -258 0
60 -258 0
62 -258 0
65 -259 0
66 -259 0
68 -259 0
71 -259 0
73 -259 0
74 -259 0
76 -259 0
80 -260 0
81 -260 0
-260 0
85 -260 0
87 -260 0
88 -260 0
90 -260 0
92 -260 0
95 -261 0
96 -261 0
98 -261 0
101 -261 0
103 -261 0
104 -261 0
106 -261 0
108 -261 0
111 -262 0
112 -262 0
114 -262 0
117 -262 0
119 -262 0
120 -262 0
122 -262 0
124 -262 0
127 -263 0
128 -263 0
130 -263 0
133 -263 0
135 -263 0
136 -263 0
139 -263 0
142 -264 0
143 -264 0
145 -264 0
148 -264 0
150 -264 0
151 -264 0
-264 0
154 -264 0
1 -265 0
3 -265 0
6 -265 0
7 -265 0
11 -265 0
13 -265 0
14 -265 0
16 -266 0
18 -266 0
21 -266 0
22 -266 0
24 -266 0
27 -266 0
29 -266 0
30 -266 0
32 -267 0
34 -267 0
37 -267 0
38 -267 0
40 -267 0
43 -267 0
45 -267 0
46 -267 0
48 -268 0
50 -268 0
53 -268 0
54 -268 0
56 -268 0
59 -268 0
61 -268 0
62 -268 0
64 -269 0
66 -269 0
69 -269 0
70 -269 0
72 -269 0
75 -269 0
77 -269 0
79 -270 0
81 -270 0
83 -270 0
84 -270 0
86 -270 0
89 -270 0
91 -270 0
92 -270 0
94 -271 0
96 -271 0
99 -271 0
100 -271 0
102 -271 0
105 -271 0
107 -271 0
108 -271 0
110 -272 0
112 -272 0
115 -272 0
116 -272 0
118 -272 0
121 -272 0
123 -272 0
124 -272 0
126 -273 0
128 -273 0
131 -273 0
132 -273 0
134 -273 0
137 -273 0
138 -273 0
139 -273 0
141 -274 0
143 -274 0
146 -274 0
147 -274 0
149 -274 0
152 -274 0
153 -274 0
154 -274 0
1 -275 0
4 -275 0
6 -275 0
7 -275 0
9 -275 0
10 -275 0
12 -275 0
15 -275 0
16 -276 0
19 -276 0
21 -276 0
22 -276 0
25 -276 0
26 -276 0
28 -276 0
31 -276 0
32 -277 0
35 -277 0
37 -277 0
38 -277 0
41 -277 0
42 -277 0
44 -277 0
47 -277 0
48 -278 0
51 -278 0
53 -278 0
54 -278 0
57 -278 0
58 -278 0
60 -278 0
63 -278 0
64 -279 0
67 -279 0
69 -279 0
70 -279 0
73 -279 0
74 -279 0
76 -279 0
78 -279 0
79 -280 0
82 -280 0
83 -280 0
84 -280 0
87 -280 0
88 -280 0
90 -280 0
93 -280 0
94 -281 0
97 -281 0
99 -281 0
100 -281 0
103 -281 0
104 -281 0
106 -281 0
109 -281 0
110 -282 0
113 -282 0
115 -282 0
116 -282 0
119 -282 0
120 -282 0
122 -282 0
125 -282 0
126 -283 0
129 -283 0
131 -283 0
132 -283 0
135 -283 0
136 -283 0
140 -283 0
141 -284 0
144 -284 0
146 -284 0
147 -284 0
150 -284 0
151 -284 0
-284 0
155 -284 0
1 -285 0
4 -285 0
6 -285 0
8 -285 0
9 -285 0
11 -285 0
12 -285 0
15 -285 0
16 -286 0
19 -286 0
21 -286 0
23 -286 0
25 -286 0
27 -286 0
28 -286 0
31 -286 0
32 -287 0
35 -287 0
37 -287 0
39 -287 0
41 -287 0
43 -287 0
44 -287 0
47 -287 0
48 -288 0
51 -288 0
53 -288 0
55 -288 0
57 -288 0
59 -288 0
60 -288 0
63 -288 0
64 -289 0
67 -289 0
69 -289 0
71 -289 0
73 -289 0
75 -289 0
76 -289 0
78 -289 0
79 -290 0
82 -290 0
83 -290 0
85 -290 0
87 -290 0
89 -290 0
90 -290 0
93 -290 0
94 -291 0
97 -291 0
99 -291 0
101 -291 0
103 -291 0
105 -291 0
106 -291 0
109 -291 0
110 -292 0
113 -292 0
115 -292 0
117 -292 0
119 -292 0
121 -292 0
122 -292 0
125 -292 0
126 -293 0
129 -293 0
131 -293 0
133 -293 0
135 -293 0
137 -293 0
140 -293 0
141 -294 0
144 -294 0
146 -294 0
148 -294 0
150 -294 0
152 -294 0
-294 0
155 -294 0
1 -295 0
3 -295 0
5 -295 0
8 -295 0
10 -295 0
13 -295 0
15 -295 0
16 -296 0
18 -296 0
20 -296 0
23 -296 0
24 -296 0
26 -296 0
29 -296 0
31 -296 0
32 -297 0
34 -297 0
36 -297 0
39 -297 0
40 -297 0
42 -297 0
45 -297 0
47 -297 0
48 -298 0
50 -298 0
52 -298 0
55 -298 0
56 -298 0
58 -298 0
61 -298 0
63 -298 0
64 -299 0
66 -299 0
68 -299 0
71 -299 0
72 -299 0
74 -299 0
77 -299 0
78 -299 0
79 -300 0
81 -300 0
-300 0
85 -300 0
86 -300 0
88 -300 0
91 -300 0
93 -300 0
94 -301 0
96 -301 0
98 -301 0
101 -301 0
102 -301 0
104 -301 0
107 -301 0
109 -301 0
110 -302 0
112 -302 0
114 -302 0
117 -302 0
118 -302 0
120 -302 0
123 -302 0
125 -302 0
126 -303 0
128 -303 0
130 -303 0
133 -303 0
134 -303 0
136 -303 0
138 -303 0
140 -303 0
141 -304 0
143 -304 0
145 -304 0
148 -304 0
149 -304 0
151 -304 0
153 -304 0
155 -304 0
2 -305 0
4 -305 0
5 -305 0
8 -305 0
10 -305 0
13 -305 0
15 -305 0
17 -306 0
19 -306 0
20 -306 0
23 -306 0
24 -306 0
26 -306 0
29 -306 0
31 -306 0
33 -307 0
35 -307 0
36 -307 0
39 -307 0
40 -307 0
42 -307 0
45 -307 0
47 -307 0
49 -308 0
51 -308 0
52 -308 0
55 -308 0
56 -308 0
58 -308 0
61 -308 0
63 -308 0
65 -309 0
67 -309 0
68 -309 0
71 -309 0
72 -309 0
74 -309 0
77 -309 0
78 -309 0
80 -310 0
82 -310 0
-310 0
85 -310 0
86 -310 0
88 -310 0
91 -310 0
93 -310 0
95 -311 0
97 -311 0
98 -311 0
101 -311 0
102 -311 0
104 -311 0
107 -311 0
109 -311 0
111 -312 0
113 -312 0
114 -312 0
117 -312 0
118 -312 0
120 -312 0
123 -312 0
125 -312 0
127 -313 0
129 -313 0
130 -313 0
133 -313 0
134 -313 0
136 -313 0
138 -313 0
140 -313 0
142 -314 0
144 -314 0
145 -314 0
148 -314 0
149 -314 0
151 -314 0
153 -314 0
155 -314 0
1 -315 0
4 -315 0
5 -315 0
7 -315 0
9 -315 0
10 -315 0
13 -315 0
15 -315 0
16 -316 0
19 -316 0
20 -316 0
22 -316 0
25 -316 0
26 -316 0
29 -316 0
31 -316 0
32 -317 0
35 -317 0
36 -317 0
38 -317 0
41 -317 0
42 -317 0
45 -317 0
47 -317 0
48 -318 0
51 -318 0
52 -318 0
54 -318 0
57 -318 0
58 -318 0
61 -318 0
63 -318 0
64 -319 0
67 -319 0
68 -319 0
70 -319 0
73 -319 0
74 -319 0
77 -319 0
78 -319 0
79 -320 0
82 -320 0
-320 0
84 -320 0
87 -320 0
88 -320 0
91 -320 0
93 -320 0
94 -321 0
97 -321 0
98 -321 0
100 -321 0
103 -321 0
104 -321 0
107 -321 0
109 -321 0
110 -322 0
113 -322 0
114 -322 0
116 -322 0
119 -322 0
120 -322 0
123 -322 0
125 -322 0
126 -323 0
129 -323 0
130 -323 0
132 -323 0
135 -323 0
136 -323 0
138 -323 0
140 -323 0
141 -324 0
144 -324 0
145 -324 0
147 -324 0
150 -324 0
151 -324 0
153 -324 0
155 -324 0
2 -325 0
4 -325 0
6 -325 0
7 -325 0
10 -325 0
13 -325 0
15 -325 0
17 -326 0
19 -326 0
21 -326 0
22 -326 0
24 -326 0
26 -326 0
29 -326 0
31 -326 0
33 -327 0
35 -327 0
37 -327 0
38 -327 0
40 -327 0
42 -327 0
45 -327 0
47 -327 0
49 -328 0
51 -328 0
53 -328 0
54 -328 0
56 -328 0
58 -328 0
61 -328 0
63 -328 0
65 -329 0
67 -329 0
69 -329 0
70 -329 0
72 -329 0
74 -329 0
77 -329 0
78 -329 0
80 -330 0
82 -330 0
83 -330 0
84 -330 0
86 -330 0
88 -330 0
91 -330 0
93 -330 0
95 -331 0
97 -331 0
99 -331 0
100 -331 0
102 -331 0
104 -331 0
107 -331 0
109 -331 0
111 -332 0
113 -332 0
115 -332 0
116 -332 0
118 -332 0
120 -332 0
123 -332 0
125 -332 0
127 -333 0
129 -333 0
131 -333 0
132 -333 0
134 -333 0
136 -333 0
138 -333 0
140 -333 0
142 -334 0
144 -334 0
146 -334 0
147 -334 0
149 -334 0
151 -334 0
153 -334 0
155 -334 0
1 -335 0
3 -335 0
5 -335 0
7 -335 0
11 -335 0
13 -335 0
15 -335 0
16 0
18 0
20 0
22 0
24 0
27 0
29 0
31 0
32 -336 0
34 -336 0
36 -336 0
38 -336 0
40 -336 0
43 -336 0
45 -336 0
47 -336 0
48 -337 0
50 -337 0
52 -337 0
54 -337 0
56 -337 0
59 -337 0
61 -337 0
63 -337 0
64 -338 0
66 -338 0
68 -338 0
70 -338 0
72 -338 0
75 -338 0
77 -338 0
78 -338 0
79 -339 0
81 -339 0
-339 0
84 -339 0
86 -339 0
89 -339 0
91 -339 0
93 -339 0
94 -340 0
96 -340 0
98 -340 0
100 -340 0
102 -340 0
105 -340 0
107 -340 0
109 -340 0
110 -341 0
112 -341 0
114 -341 0
116 -341 0
118 -341 0
121 -341 0
123 -341 0
125 -341 0
126 -342 0
128 -342 0
130 -342 0
132 -342 0
134 -342 0
137 -342 0
138 -342 0
140 -342 0
141 -343 0
143 -343 0
145 -343 0
147 -343 0
149 -343 0
152 -343 0
153 -343 0
155 -343 0
2 -344 0
3 -344 0
5 -344 0
8 -344 0
11 -344 0
13 -344 0
15 -344 0
17 -345 0
18 -345 0
20 -345 0
23 -345 0
24 -345 0
27 -345 0
29 -345 0
31 -345 0
33 -346 0
34 -346 0
36 -346 0
39 -346 0
40 -346 0
43 -346 0
45 -346 0
47 -346 0
49 -347 0
50 -347 0
52 -347 0
55 -347 0
56 -347 0
59 -347 0
61 -347 0
63 -347 0
65 -348 0
66 -348 0
68 -348 0
71 -348 0
72 -348 0
75 -348 0
77 -348 0
78 -348 0
80 -349 0
81 -349 0
-349 0
85 -349 0
86 -349 0
89 -349 0
91 -349 0
93 -349 0
95 -350 0
96 -350 0
98 -350 0
101 -350 0
102 -350 0
105 -350 0
107 -350 0
109 -350 0
111 -351 0
112 -351 0
114 -351 0
117 -351 0
118 -351 0
121 -351 0
123 -351 0
125 -351 0
127 -352 0
128 -352 0
130 -352 0
133 -352 0
134 -352 0
137 -352 0
138 -352 0
140 -352 0
142 -353 0
143 -353 0
145 -353 0
148 -353 0
149 -353 0
152 -353 0
153 -353 0
155 -353 0
2 -354 0
3 -354 0
6 -354 0
8 -354 0
9 -354 0
11 -354 0
12 -354 0
15 -354 0
17 -355 0
18 -355 0
21 -355 0
23 -355 0
25 -355 0
27 -355 0
28 -355 0
31 -355 0
33 -356 0
34 -356 0
37 -356 0
39 -356 0
41 -356 0
43 -356 0
44 -356 0
47 -356 0
49 -357 0
50 -357 0
53 -357 0
55 -357 0
57 -357 0
59 -357 0
60 -357 0
63 -357 0
65 -358 0
66 -358 0
69 -358 0
71 -358 0
73 -358 0
75 -358 0
76 -358 0
78 -358 0
80 -359 0
81 -359 0
83 -359 0
85 -359 0
87 -359 0
89 -359 0
90 -359 0
93 -359 0
95 -360 0
96 -360 0
99 -360 0
101 -360 0
103 -360 0
105 -360 0
106 -360 0
109 -360 0
111 -361 0
112 -361 0
115 -361 0
117 -361 0
119 -361 0
121 -361 0
122 -361 0
125 -361 0
127 -362 0
128 -362 0
131 -362 0
133 -362 0
135 -362 0
137 -362 0
140 -362 0
142 -363 0
143 -363 0
146 -363 0
148 -363 0
150 -363 0
152 -363 0
-363 0
155 -363 0
2 -364 0
3 -364 0
6 -364 0
7 -364 0
11 -364 0
13 -364 0
15 -364 0
17 -365 0
18 -365 0
21 -365 0
22 -365 0
24 -365 0
27 -365 0
29 -365 0
31 -365 0
33 -366 0
34 -366 0
37 -366 0
38 -366 0
40 -366 0
43 -366 0
45 -366 0
47 -366 0
49 -367 0
50 -367 0
53 -367 0
54 -367 0
56 -367 0
59 -367 0
61 -367 0
63 -367 0
65 -368 0
66 -368 0
69 -368 0
70 -368 0
72 -368 0
75 -368 0
77 -368 0
78 -368 0
80 -369 0
81 -369 0
83 -369 0
84 -369 0
86 -369 0
89 -369 0
91 -369 0
93 -369 0
95 -370 0
96 -370 0
99 -370 0
100 -370 0
102 -370 0
105 -370 0
107 -370 0
109 -370 0
111 -371 0
112 -371 0
115 -371 0
116 -371 0
118 -371 0
121 -371 0
123 -371 0
125 -371 0
127 -372 0
128 -372 0
131 -372 0
132 -372 0
134 -372 0
137 -372 0
138 -372 0
140 -372 0
142 0
143 0
146 0
147 0
149 0
152 0
153 0
155 0
1 -373 0
4 -373 0
5 -373 0
8 -373 0
9 -373 0
11 -373 0
12 -373 0
14 -373 0
16 -374 0
19 -374 0
20 -374 0
23 -374 0
25 -374 0
27 -374 0
28 -374 0
30 -374 0
32 -375 0
35 -375 0
36 -375 0
39 -375 0
41 -375 0
43 -375 0
44 -375 0
46 -375 0
48 -376 0
51 -376 0
52 -376 0
55 -376 0
57 -376 0
59 -376 0
60 -376 0
62 -376 0
64 -377 0
67 -377 0
68 -377 0
71 -377 0
73 -377 0
75 -377 0
76 -377 0
79 -378 0
82 -378 0
-378 0
85 -378 0
87 -378 0
89 -378 0
90 -378 0
92 -378 0
94 -379 0
97 -379 0
98 -379 0
101 -379 0
103 -379 0
105 -379 0
106 -379 0
108 -379 0
110 -380 0
113 -380 0
114 -380 0
117 -380 0
119 -380 0
121 -380 0
122 -380 0
124 -380 0
126 -381 0
129 -381 0
130 -381 0
133 -381 0
135 -381 0
137 -381 0
139 -381 0
141 -382 0
144 -382 0
145 -382 0
148 -382 0
150 -382 0
152 -382 0
-382 0
154 -382 0
2 -383 0
3 -383 0
6 -383 0
7 -383 0
9 -383 0
10 -383 0
13 -383 0
14 -383 0
17 -384 0
18 -384 0
21 -384 0
22 -384 0
25 -384 0
26 -384 0
29 -384 0
30 -384 0
33 0
34 0
37 0
38 0
41 0
42 0
45 0
46 0
49 -385 0
50 -385 0
53 -385 0
54 -385 0
57 -385 0
58 -385 0
61 -385 0
62 -385 0
65 -386 0
66 -386 0
69 -386 0
70 -386 0
73 -386 0
74 -386 0
77 -386 0
80 -387 0
81 -387 0
83 -387 0
84 -387 0
87 -387 0
88 -387 0
91 -387 0
92 -387 0
95 -388 0
96 -388 0
99 -388 0
100 -388 0
103 -388 0
104 -388 0
107 -388 0
108 -388 0
111 -389 0
112 -389 0
115 -389 0
116 -389 0
119 -389 0
120 -389 0
123 -389 0
124 -389 0
127 -390 0
128 -390 0
131 -390 0
132 -390 0
135 -390 0
136 -390 0
138 -390 0
139 -390 0
142 0
143 0
146 0
147 0
150 0
151 0
153 0
154 0
2 -391 0
3 -391 0
5 -391 0
8 -391 0
9 -391 0
10 -391 0
12 -391 0
14 -391 0
17 -392 0
18 -392 0
20 -392 0
23 -392 0
25 -392 0
26 -392 0
28 -392 0
30 -392 0
33 -393 0
34 -393 0
36 -393 0
39 -393 0
41 -393 0
42 -393 0
44 -393 0
46 -393 0
49 -394 0
50 -394 0
52 -394 0
55 -394 0
57 -394 0
58 -394 0
60 -394 0
62 -394 0
65 -395 0
66 -395 0
68 -395 0
71 -395 0
73 -395 0
74 -395 0
76 -395 0
80 -396 0
81 -396 0
-396 0
85 -396 0
87 -396 0
88 -396 0
90 -396 0
92 -396 0
95 -397 0
96 -397 0
98 -397 0
101 -397 0
103 -397 0
104 -397 0
106 -397 0
108 -397 0
111 -398 0
112 -398 0
114 -398 0
117 -398 0
119 -398 0
120 -398 0
122 -398 0
124 -398 0
127 -399 0
128 -399 0
130 -399 0
133 -399 0
135 -399 0
136 -399 0
139 -399 0
142 -400 0
143 -400 0
145 -400 0
148 -400 0
150 -400 0
151 -400 0
-400 0
154 -400 0
2 -401 0
4 -401 0
5 -401 0
7 -401 0
9 -401 0
10 -401 0
13 -401 0
15 -401 0
17 -402 0
19 -402 0
20 -402 0
22 -402 0
25 -402 0
26 -402 0
29 -402 0
31 -402 0
33 -403 0
35 -403 0
36 -403 0
38 -403 0
41 -403 0
42 -403 0
45 -403 0
47 -403 0
49 -404 0
51 -404 0
52 -404 0
54 -404 0
57 -404 0
58 -404 0
61 -404 0
63 -404 0
65 -405 0
67 -405 0
68 -405 0
70 -405 0
73 -405 0
74 -405 0
77 -405 0
78 -405 0
80 -406 0
82 -406 0
-406 0
84 -406 0
87 -406 0
88 -406 0
91 -406 0
93 -406 0
95 -407 0
97 -407 0
98 -407 0
100 -407 0
103 -407 0
104 -407 0
107 -407 0
109 -407 0
111 -408 0
113 -408 0
114 -408 0
116 -408 0
119 -408 0
120 -408 0
123 -408 0
125 -408 0
127 0
129 0
130 0
132 0
135 0
136 0
138 0
140 0
142 -409 0
144 -409 0
145 -409 0
147 -409 0
150 -409 0
151 -409 0
153 -409 0
155 -409 0
2 -410 0
4 -410 0
6 -410 0
7 -410 0
9 -410 0
10 -410 0
12 -410 0
15 -410 0
17 -411 0
19 -411 0
21 -411 0
22 -411 0
25 -411 0
26 -411 0
28 -411 0
31 -411 0
33 -412 0
35 -412 0
37 -412 0
38 -412 0
41 -412 0
42 -412 0
44 -412 0
47 -412 0
49 -413 0
51 -413 0
53 -413 0
54 -413 0
57 -413 0
58 -413 0
60 -413 0
63 -413 0
65 -414 0
67 -414 0
69 -414 0
70 -414 0
73 -414 0
74 -414 0
76 -414 0
78 -414 0
80 -415 0
82 -415 0
83 -415 0
84 -415 0
87 -415 0
88 -415 0
90 -415 0
93 -415 0
95 -416 0
97 -416 0
99 -416 0
100 -416 0
103 -416 0
104 -416 0
106 -416 0
109 -416 0
111 -417 0
113 -417 0
115 -417 0
116 -417 0
119 -417 0
120 -417 0
122 -417 0
125 -417 0
127 -418 0
129 -418 0
131 -418 0
132 -418 0
135 -418 0
136 -418 0
140 -418 0
142 -419 0
144 -419 0
146 -419 0
147 -419 0
150 -419 0
151 -419 0
-419 0
155 -419 0
1 -420 0
3 -420 0
5 -420 0
7 -420 0
9 -420 0
10 -420 0
12 -420 0
15 -420 0
16 -421 0
18 -421 0
20 -421 0
22 -421 0
25 -421 0
26 -421 0
28 -421 0
31 -421 0
32 -422 0
34 -422 0
36 -422 0
38 -422 0
41 -422 0
42 -422 0
44 -422 0
47 -422 0
48 -423 0
50 -423 0
52 -423 0
54 -423 0
57 -423 0
58 -423 0
60 -423 0
63 -423 0
64 -424 0
66 -424 0
68 -424 0
70 -424 0
73 -424 0
74 -424 0
76 -424 0
78 -424 0
79 -425 0
81 -425 0
-425 0
84 -425 0
87 -425 0
88 -425 0
90 -425 0
93 -425 0
94 -426 0
96 -426 0
98 -426 0
100 -426 0
103 -426 0
104 -426 0
106 -426 0
109 -426 0
110 -427 0
112 -427 0
114 -427 0
116 -427 0
119 -427 0
120 -427 0
122 -427 0
125 -427 0
126 -428 0
128 -428 0
130 -428 0
132 -428 0
135 -428 0
136 -428 0
140 -428 0
141 -429 0
143 -429 0
145 -429 0
147 -429 0
150 -429 0
151 -429 0
-429 0
155 -429 0
2 0
3 0
5 0
8 0
9 0
11 0
12 0
14 0
17 -430 0
18 -430 0
20 -430 0
23 -430 0
25 -430 0
27 -430 0
28 -430 0
30 -430 0
33 -431 0
34 -431 0
36 -431 0
39 -431 0
41 -431 0
43 -431 0
44 -431 0
46 -431 0
49 -432 0
50 -432 0
52 -432 0
55 -432 0
57 -432 0
59 -432 0
60 -432 0
62 -432 0
65 -433 0
66 -433 0
68 -433 0
71 -433 0
73 -433 0
75 -433 0
76 -433 0
80 -434 0
81 -434 0
-434 0
85 -434 0
87 -434 0
89 -434 0
90 -434 0
92 -434 0
95 -435 0
96 -435 0
98 -435 0
101 -435 0
103 -435 0
105 -435 0
106 -435 0
108 -435 0
111 -436 0
112 -436 0
114 -436 0
117 -436 0
119 -436 0
121 -436 0
122 -436 0
124 -436 0
127 -437 0
128 -437 0
130 -437 0
133 -437 0
135 -437 0
137 -437 0
139 -437 0
142 -438 0
143 -438 0
145 -438 0
148 -438 0
150 -438 0
152 -438 0
-438 0
154 -438 0
1 -439 0
3 -439 0
6 -439 0
8 -439 0
11 -439 0
13 -439 0
15 -439 0
16 -440 0
18 -440 0
21 -440 0
23 -440 0
24 -440 0
27 -440 0
29 -440 0
31 -440 0
32 -441 0
34 -441 0
37 -441 0
39 -441 0
40 -441 0
43 -441 0
45 -441 0
47 -441 0
48 -442 0
50 -442 0
53 -442 0
55 -442 0
56 -442 0
59 -442 0
61 -442 0
63 -442 0
64 -443 0
66 -443 0
69 -443 0
71 -443 0
72 -443 0
75 -443 0
77 -443 0
78 -443 0
79 -444 0
81 -444 0
83 -444 0
85 -444 0
86 -444 0
89 -444 0
91 -444 0
93 -444 0
94 -445 0
96 -445 0
99 -445 0
101 -445 0
102 -445 0
105 -445 0
107 -445 0
109 -445 0
110 -446 0
112 -446 0
115 -446 0
117 -446 0
118 -446 0
121 -446 0
123 -446 0
125 -446 0
141 -447 0
143 -447 0
146 -447 0
148 -447 0
149 -447 0
152 -447 0
153 -447 0
155 -447 0
1 -448 0
4 -448 0
6 -448 0
8 -448 0
9 -448 0
11 -448 0
12 -448 0
15 -448 0
16 -449 0
19 -449 0
21 -449 0
23 -449 0
25 -449 0
27 -449 0
28 -449 0
31 -449 0
32 -450 0
35 -450 0
37 -450 0
39 -450 0
41 -450 0
43 -450 0
44 -450 0
47 -450 0
48 -451 0
51 -451 0
53 -451 0
55 -451 0
57 -451 0
59 -451 0
60 -451 0
63 -451 0
64 -452 0
67 -452 0
69 -452 0
71 -452 0
73 -452 0
75 -452 0
76 -452 0
78 -452 0
79 -453 0
82 -453 0
83 -453 0
85 -453 0
87 -453 0
89 -453 0
90 -453 0
93 -453 0
94 -454 0
97 -454 0
99 -454 0
101 -454 0
103 -454 0
105 -454 0
106 -454 0
109 -454 0
110 -455 0
113 -455 0
115 -455 0
117 -455 0
119 -455 0
121 -455 0
122 -455 0
125 -455 0
126 -456 0
129 -456 0
131 -456 0
133 -456 0
135 -456 0
137 -456 0
140 -456 0
141 -457 0
144 -457 0
146 -457 0
148 -457 0
150 -457 0
152 -457 0
-457 0
155 -457 0
2 -458 0
4 -458 0
5 -458 0
7 -458 0
9 -458 0
11 -458 0
12 -458 0
14 -458 0
17 -459 0
19 -459 0
20 -459 0
22 -459 0
25 -459 0
27 -459 0
28 -459 0
30 -459 0
33 -460 0
35 -460 0
36 -460 0
38 -460 0
41 -460 0
43 -460 0
44 -460 0
46 -460 0
49 -461 0
51 -461 0
52 -461 0
54 -461 0
57 -461 0
59 -461 0
60 -461 0
62 -461 0
65 -462 0
67 -462 0
68 -462 0
70 -462 0
73 -462 0
75 -462 0
76 -462 0
80 -463 0
82 -463 0
-463 0
84 -463 0
87 -463 0
89 -463 0
90 -463 0
92 -463 0
95 -464 0
97 -464 0
98 -464 0
100 -464 0
103 -464 0
105 -464 0
106 -464 0
108 -464 0
111 -465 0
113 -465 0
114 -465 0
116 -465 0
119 -465 0
121 -465 0
122 -465 0
124 -465 0
127 -466 0
129 -466 0
130 -466 0
132 -466 0
135 -466 0
137 -466 0
139 -466 0
142 -467 0
144 -467 0
145 -467 0
147 -467 0
150 -467 0
152 -467 0
-467 0
154 -467 0
2 -468 0
4 -468 0
5 -468 0
7 -468 0
9 -468 0
11 -468 0
13 -468 0
15 -468 0
33 -469 0
35 -469 0
36 -469 0
38 -469 0
41 -469 0
43 -469 0
45 -469 0
47 -469 0
49 -470 0
51 -470 0
52 -470 0
54 -470 0
57 -470 0
59 -470 0
61 -470 0
63 -470 0
65 -471 0
67 -471 0
68 -471 0
70 -471 0
73 -471 0
75 -471 0
77 -471 0
78 -471 0
80 -472 0
82 -472 0
-472 0
84 -472 0
87 -472 0
89 -472 0
91 -472 0
93 -472 0
95 -473 0
97 -473 0
98 -473 0
100 -473 0
103 -473 0
105 -473 0
107 -473 0
109 -473 0
111 -474 0
113 -474 0
114 -474 0
116 -474 0
119 -474 0
121 -474 0
123 -474 0
125 -474 0
127 -475 0
129 -475 0
130 -475 0
132 -475 0
135 -475 0
137 -475 0
138 -475 0
140 -475 0
142 -476 0
144 -476 0
145 -476 0
147 -476 0
150 -476 0
152 -476 0
153 -476 0
155 -476 0
1 -477 0
4 -477 0
5 -477 0
8 -477 0
9 -477 0
10 -477 0
12 -477 0
14 -477 0
16 -478 0
19 -478 0
20 -478 0
23 -478 0
25 -478 0
26 -478 0
28 -478 0
30 -478 0
32 -479 0
35 -479 0
36 -479 0
39 -479 0
41 -479 0
42 -479 0
44 -479 0
46 -479 0
48 -480 0
51 -480 0
52 -480 0
55 -480 0
57 -480 0
58 -480 0
60 -480 0
62 -480 0
64 -481 0
67 -481 0
68 -481 0
71 -481 0
73 -481 0
74 -481 0
76 -481 0
79 -482 0
82 -482 0
-482 0
85 -482 0
87 -482 0
88 -482 0
90 -482 0
92 -482 0
94 -483 0
97 -483 0
98 -483 0
101 -483 0
103 -483 0
104 -483 0
106 -483 0
108 -483 0
110 -484 0
113 -484 0
114 -484 0
117 -484 0
119 -484 0
120 -484 0
122 -484 0
124 -484 0
126 -485 0
129 -485 0
130 -485 0
133 -485 0
135 -485 0
136 -485 0
139 -485 0
141 -486 0
144 -486 0
145 -486 0
148 -486 0
150 -486 0
151 -486 0
-486 0
154 -486 0
1 -487 0
3 -487 0
5 -487 0
8 -487 0
9 -487 0
11 -487 0
13 -487 0
15 -487 0
16 -488 0
18 -488 0
20 -488 0
23 -488 0
25 -488 0
27 -488 0
29 -488 0
31 -488 0
32 -489 0
34 -489 0
36 -489 0
39 -489 0
41 -489 0
43 -489 0
45 -489 0
47 -489 0
48 -490 0
50 -490 0
52 -490 0
55 -490 0
57 -490 0
59 -490 0
61 -490 0
63 -490 0
64 -491 0
66 -491 0
68 -491 0
71 -491 0
73 -491 0
75 -491 0
77 -491 0
78 -491 0
79 -492 0
81 -492 0
-492 0
85 -492 0
87 -492 0
89 -492 0
91 -492 0
93 -492 0
94 -493 0
96 -493 0
98 -493 0
101 -493 0
103 -493 0
105 -493 0
107 -493 0
109 -493 0
110 -494 0
112 -494 0
114 -494 0
117 -494 0
119 -494 0
121 -494 0
123 -494 0
125 -494 0
126 -495 0
128 -495 0
130 -495 0
133 -495 0
135 -495 0
137 -495 0
138 -495 0
140 -495 0
141 -496 0
143 -496 0
145 -496 0
148 -496 0
150 -496 0
152 -496 0
153 -496 0
155 -496 0
156 157 158 159 160 161 162 163 164 165 0
166 167 168 169 170 171 172 173 174 175 0
176 177 178 179 180 181 182 183 184 185 0
186 187 188 189 190 191 192 193 194 195 0
196 197 198 199 200 201 202 203 204 205 0
206 207 208 209 210 211 212 213 214 215 0
216 217 218 219 220 221 222 223 224 225 0
226 227 228 229 230 231 232 233 234 235 0
236 237 238 239 240 241 242 243 244 0
245 246 247 248 249 250 251 252 253 254 0
255 256 257 258 259 260 261 262 263 264 0
265 266 267 268 269 270 271 272 273 274 0
275 276 277 278 279 280 281 282 283 284 0
285 286 287 288 289 290 291 292 293 294 0
295 296 297 298 299 300 301 302 303 304 0
305 306 307 308 309 310 311 312 313 314 0
315 316 317 318 319 320 321 322 323 324 0
325 326 327 328 329 330 331 332 333 334 0
344 345 346 347 348 349 350 351 352 353 0
354 355 356 357 358 359 360 361 362 363 0
373 374 375 376 377 378 379 380 381 382 0
391 392 393 394 395 396 397 398 399 400 0
410 411 412 413 414 415 416 417 418 419 0
420 421 422 423 424 425 426 427 428 429 0
439 440 441 442 443 444 445 446 447 0
448 449 450 451 452 453 454 455 456 457 0
458 459 460 461 462 463 464 465 466 467 0
468 469 470 471 472 473 474 475 476 0
477 478 479 480 481 482 483 484 485 486 0
487 488 489 490 491 492 493 494 495 496 0
